100
128
64
8
42
55
35
51
29
48
55
22
46
38
54
46
38
60
8
6
56
48
24
22
35
61
64
51
32
22
18
51
59
19
57
51
51
29
48
59
41
27
64
10
53
59
34
18
64
41
56
20
50
22
17
64
64
2
47
57
24
30
56
60
14
53
42
9
28
34
21
61
21
18
46
41
44
41
48
24
63
64
56
28
9
61
27
4
35
47
30
47
4
24
5
30
7
62
43
2
44
39